data/lp_files/q3/66_8.lp
\ Model foo
\ LP format - for model browsing. Use MPS format to capture full model detail.
Minimize
  z
Subject To
 allocateEach[1]: x[1,1] + x[2,1] + x[3,1] + x[4,1] = 1
 allocateEach[2]: x[1,2] + x[2,2] + x[3,2] + x[4,2] = 1
 allocateEach[3]: x[1,3] + x[2,3] + x[3,3] + x[4,3] = 1
 allocateEach[4]: x[1,4] + x[2,4] + x[3,4] + x[4,4] = 1
 allocateEach[5]: x[1,5] + x[2,5] + x[3,5] + x[4,5] = 1
 allocateEach[6]: x[1,6] + x[2,6] + x[3,6] + x[4,6] = 1
 allocateAllCash: cashProportion[1] + cashProportion[2] + cashProportion[3]
   + cashProportion[4] = 1
 findWorstP[1,2]: z + 0.1636728180367446 cashProportion[1]
   - 0.1636728180367446 cashProportion[2] + 0.1351119112893326 x[1,1]
   + 0.161790580629322 x[1,2] + 0.1553255043168706 x[1,3]
   + 0.0987151683784116 x[1,4] + 0.116187241703834 x[1,5]
   + 0.1691967756454847 x[1,6] - 0.1351119112893326 x[2,1]
   - 0.161790580629322 x[2,2] - 0.1553255043168706 x[2,3]
   - 0.0987151683784116 x[2,4] - 0.116187241703834 x[2,5]
   - 0.1691967756454847 x[2,6] >= 0
 findWorstP[1,3]: z + 0.1636728180367446 cashProportion[1]
   - 0.1636728180367446 cashProportion[3] + 0.1351119112893326 x[1,1]
   + 0.161790580629322 x[1,2] + 0.1553255043168706 x[1,3]
   + 0.0987151683784116 x[1,4] + 0.116187241703834 x[1,5]
   + 0.1691967756454847 x[1,6] - 0.1351119112893326 x[3,1]
   - 0.161790580629322 x[3,2] - 0.1553255043168706 x[3,3]
   - 0.0987151683784116 x[3,4] - 0.116187241703834 x[3,5]
   - 0.1691967756454847 x[3,6] >= 0
 findWorstP[1,4]: z + 0.1636728180367446 cashProportion[1]
   - 0.1636728180367446 cashProportion[4] + 0.1351119112893326 x[1,1]
   + 0.161790580629322 x[1,2] + 0.1553255043168706 x[1,3]
   + 0.0987151683784116 x[1,4] + 0.116187241703834 x[1,5]
   + 0.1691967756454847 x[1,6] - 0.1351119112893326 x[4,1]
   - 0.161790580629322 x[4,2] - 0.1553255043168706 x[4,3]
   - 0.0987151683784116 x[4,4] - 0.116187241703834 x[4,5]
   - 0.1691967756454847 x[4,6] >= 0
 findWorstP[2,1]: z - 0.2051282051282051 cashProportion[1]
   + 0.2051282051282051 cashProportion[2] - 0.1137435897435897 x[1,1]
   - 0.2546666666666667 x[1,2] - 0.0836410256410256 x[1,3]
   - 0.211051282051282 x[1,4] - 0.0196923076923077 x[1,5]
   - 0.1120769230769231 x[1,6] + 0.1137435897435897 x[2,1]
   + 0.2546666666666667 x[2,2] + 0.0836410256410256 x[2,3]
   + 0.211051282051282 x[2,4] + 0.0196923076923077 x[2,5]
   + 0.1120769230769231 x[2,6] >= 0
 findWorstP[2,3]: z + 0.2051282051282051 cashProportion[2]
   - 0.2051282051282051 cashProportion[3] + 0.1137435897435897 x[2,1]
   + 0.2546666666666667 x[2,2] + 0.0836410256410256 x[2,3]
   + 0.211051282051282 x[2,4] + 0.0196923076923077 x[2,5]
   + 0.1120769230769231 x[2,6] - 0.1137435897435897 x[3,1]
   - 0.2546666666666667 x[3,2] - 0.0836410256410256 x[3,3]
   - 0.211051282051282 x[3,4] - 0.0196923076923077 x[3,5]
   - 0.1120769230769231 x[3,6] >= 0
 findWorstP[2,4]: z + 0.2051282051282051 cashProportion[2]
   - 0.2051282051282051 cashProportion[4] + 0.1137435897435897 x[2,1]
   + 0.2546666666666667 x[2,2] + 0.0836410256410256 x[2,3]
   + 0.211051282051282 x[2,4] + 0.0196923076923077 x[2,5]
   + 0.1120769230769231 x[2,6] - 0.1137435897435897 x[4,1]
   - 0.2546666666666667 x[4,2] - 0.0836410256410256 x[4,3]
   - 0.211051282051282 x[4,4] - 0.0196923076923077 x[4,5]
   - 0.1120769230769231 x[4,6] >= 0
 findWorstP[3,1]: z - 0.2222407422840793 cashProportion[1]
   + 0.2222407422840793 cashProportion[3] - 0.2077950940356141 x[1,1]
   - 0.0456704725393783 x[1,2] - 0.2072950523654749 x[1,3]
   - 0.1113426118843237 x[1,4] - 0.1849042975803539 x[1,5]
   - 0.0207517293107759 x[1,6] + 0.2077950940356141 x[3,1]
   + 0.0456704725393783 x[3,2] + 0.2072950523654749 x[3,3]
   + 0.1113426118843237 x[3,4] + 0.1849042975803539 x[3,5]
   + 0.0207517293107759 x[3,6] >= 0
 findWorstP[3,2]: z - 0.2222407422840793 cashProportion[2]
   + 0.2222407422840793 cashProportion[3] - 0.2077950940356141 x[2,1]
   - 0.0456704725393783 x[2,2] - 0.2072950523654749 x[2,3]
   - 0.1113426118843237 x[2,4] - 0.1849042975803539 x[2,5]
   - 0.0207517293107759 x[2,6] + 0.2077950940356141 x[3,1]
   + 0.0456704725393783 x[3,2] + 0.2072950523654749 x[3,3]
   + 0.1113426118843237 x[3,4] + 0.1849042975803539 x[3,5]
   + 0.0207517293107759 x[3,6] >= 0
 findWorstP[3,4]: z + 0.2222407422840793 cashProportion[3]
   - 0.2222407422840793 cashProportion[4] + 0.2077950940356141 x[3,1]
   + 0.0456704725393783 x[3,2] + 0.2072950523654749 x[3,3]
   + 0.1113426118843237 x[3,4] + 0.1849042975803539 x[3,5]
   + 0.0207517293107759 x[3,6] - 0.2077950940356141 x[4,1]
   - 0.0456704725393783 x[4,2] - 0.2072950523654749 x[4,3]
   - 0.1113426118843237 x[4,4] - 0.1849042975803539 x[4,5]
   - 0.0207517293107759 x[4,6] >= 0
 findWorstP[4,1]: z - 0.2178589907682253 cashProportion[1]
   + 0.2178589907682253 cashProportion[4] - 0.1127964924702486 x[1,1]
   - 0.2453909207265597 x[1,2] - 0.1153291032379292 x[1,3]
   - 0.223414395032815 x[1,4] - 0.00294109637537104 x[1,5]
   - 0.0822690013888511 x[1,6] + 0.1127964924702486 x[4,1]
   + 0.2453909207265597 x[4,2] + 0.1153291032379292 x[4,3]
   + 0.223414395032815 x[4,4] + 0.00294109637537104 x[4,5]
   + 0.0822690013888511 x[4,6] >= 0
 findWorstP[4,2]: z - 0.2178589907682253 cashProportion[2]
   + 0.2178589907682253 cashProportion[4] - 0.1127964924702486 x[2,1]
   - 0.2453909207265597 x[2,2] - 0.1153291032379292 x[2,3]
   - 0.223414395032815 x[2,4] - 0.00294109637537104 x[2,5]
   - 0.0822690013888511 x[2,6] + 0.1127964924702486 x[4,1]
   + 0.2453909207265597 x[4,2] + 0.1153291032379292 x[4,3]
   + 0.223414395032815 x[4,4] + 0.00294109637537104 x[4,5]
   + 0.0822690013888511 x[4,6] >= 0
 findWorstP[4,3]: z - 0.2178589907682253 cashProportion[3]
   + 0.2178589907682253 cashProportion[4] - 0.1127964924702486 x[3,1]
   - 0.2453909207265597 x[3,2] - 0.1153291032379292 x[3,3]
   - 0.223414395032815 x[3,4] - 0.00294109637537104 x[3,5]
   - 0.0822690013888511 x[3,6] + 0.1127964924702486 x[4,1]
   + 0.2453909207265597 x[4,2] + 0.1153291032379292 x[4,3]
   + 0.223414395032815 x[4,4] + 0.00294109637537104 x[4,5]
   + 0.0822690013888511 x[4,6] >= 0
Bounds
 z <= 1
 -infinity <= cashProportion[1] <= 1
 -infinity <= cashProportion[2] <= 1
 -infinity <= cashProportion[3] <= 1
 -infinity <= cashProportion[4] <= 1
Binaries
 x[1,1] x[1,2] x[1,3] x[1,4] x[1,5] x[1,6] x[2,1] x[2,2] x[2,3] x[2,4]
 x[2,5] x[2,6] x[3,1] x[3,2] x[3,3] x[3,4] x[3,5] x[3,6] x[4,1] x[4,2]
 x[4,3] x[4,4] x[4,5] x[4,6]
End
