data/mps_files/pEFS/66_8.mps
NAME foo
ROWS
 N  OBJ
 E  allocateEach[1]
 E  allocateEach[2]
 E  allocateEach[3]
 E  allocateEach[4]
 E  allocateEach[5]
 E  allocateEach[6]
 E  allocateAllCash
 G  findWorstP[1,2]
 G  findWorstP[1,3]
 G  findWorstP[1,4]
 G  findWorstP[2,1]
 G  findWorstP[2,3]
 G  findWorstP[2,4]
 G  findWorstP[3,1]
 G  findWorstP[3,2]
 G  findWorstP[3,4]
 G  findWorstP[4,1]
 G  findWorstP[4,2]
 G  findWorstP[4,3]
COLUMNS
    z         OBJ       1
    z         findWorstP[1,2]  1
    z         findWorstP[1,3]  1
    z         findWorstP[1,4]  1
    z         findWorstP[2,1]  1
    z         findWorstP[2,3]  1
    z         findWorstP[2,4]  1
    z         findWorstP[3,1]  1
    z         findWorstP[3,2]  1
    z         findWorstP[3,4]  1
    z         findWorstP[4,1]  1
    z         findWorstP[4,2]  1
    z         findWorstP[4,3]  1
    cashProportion[1]  allocateAllCash  1
    cashProportion[1]  findWorstP[1,2]  1.6367281803674461e-01
    cashProportion[1]  findWorstP[1,3]  1.6367281803674461e-01
    cashProportion[1]  findWorstP[1,4]  1.6367281803674461e-01
    cashProportion[1]  findWorstP[2,1]  -2.0512820512820515e-01
    cashProportion[1]  findWorstP[3,1]  -2.2224074228407925e-01
    cashProportion[1]  findWorstP[4,1]  -2.1785899076822529e-01
    cashProportion[2]  allocateAllCash  1
    cashProportion[2]  findWorstP[1,2]  -1.6367281803674461e-01
    cashProportion[2]  findWorstP[2,1]  2.0512820512820515e-01
    cashProportion[2]  findWorstP[2,3]  2.0512820512820515e-01
    cashProportion[2]  findWorstP[2,4]  2.0512820512820515e-01
    cashProportion[2]  findWorstP[3,2]  -2.2224074228407925e-01
    cashProportion[2]  findWorstP[4,2]  -2.1785899076822529e-01
    cashProportion[3]  allocateAllCash  1
    cashProportion[3]  findWorstP[1,3]  -1.6367281803674461e-01
    cashProportion[3]  findWorstP[2,3]  -2.0512820512820515e-01
    cashProportion[3]  findWorstP[3,1]  2.2224074228407925e-01
    cashProportion[3]  findWorstP[3,2]  2.2224074228407925e-01
    cashProportion[3]  findWorstP[3,4]  2.2224074228407925e-01
    cashProportion[3]  findWorstP[4,3]  -2.1785899076822529e-01
    cashProportion[4]  allocateAllCash  1
    cashProportion[4]  findWorstP[1,4]  -1.6367281803674461e-01
    cashProportion[4]  findWorstP[2,4]  -2.0512820512820515e-01
    cashProportion[4]  findWorstP[3,4]  -2.2224074228407925e-01
    cashProportion[4]  findWorstP[4,1]  2.1785899076822529e-01
    cashProportion[4]  findWorstP[4,2]  2.1785899076822529e-01
    cashProportion[4]  findWorstP[4,3]  2.1785899076822529e-01
    MARKER    'MARKER'                 'INTORG'
    x[1,1]    allocateEach[1]  1
    x[1,1]    findWorstP[1,2]  1.3511191128933264e-01
    x[1,1]    findWorstP[1,3]  1.3511191128933264e-01
    x[1,1]    findWorstP[1,4]  1.3511191128933264e-01
    x[1,1]    findWorstP[2,1]  -1.1374358974358974e-01
    x[1,1]    findWorstP[3,1]  -2.0779509403561408e-01
    x[1,1]    findWorstP[4,1]  -1.1279649247024863e-01
    x[1,2]    allocateEach[2]  1
    x[1,2]    findWorstP[1,2]  0.161790580629322
    x[1,2]    findWorstP[1,3]  0.161790580629322
    x[1,2]    findWorstP[1,4]  0.161790580629322
    x[1,2]    findWorstP[2,1]  -2.5466666666666665e-01
    x[1,2]    findWorstP[3,1]  -4.5670472539378275e-02
    x[1,2]    findWorstP[4,1]  -2.4539092072655974e-01
    x[1,3]    allocateEach[3]  1
    x[1,3]    findWorstP[1,2]  1.5532550431687059e-01
    x[1,3]    findWorstP[1,3]  1.5532550431687059e-01
    x[1,3]    findWorstP[1,4]  1.5532550431687059e-01
    x[1,3]    findWorstP[2,1]  -8.3641025641025629e-02
    x[1,3]    findWorstP[3,1]  -2.0729505236547488e-01
    x[1,3]    findWorstP[4,1]  -1.1532910323792925e-01
    x[1,4]    allocateEach[4]  1
    x[1,4]    findWorstP[1,2]  9.8715168378411558e-02
    x[1,4]    findWorstP[1,3]  9.8715168378411558e-02
    x[1,4]    findWorstP[1,4]  9.8715168378411558e-02
    x[1,4]    findWorstP[2,1]  -2.1105128205128204e-01
    x[1,4]    findWorstP[3,1]  -1.1134261188432369e-01
    x[1,4]    findWorstP[4,1]  -2.2341439503281502e-01
    x[1,5]    allocateEach[5]  1
    x[1,5]    findWorstP[1,2]  1.1618724170383404e-01
    x[1,5]    findWorstP[1,3]  1.1618724170383404e-01
    x[1,5]    findWorstP[1,4]  1.1618724170383404e-01
    x[1,5]    findWorstP[2,1]  -1.9692307692307690e-02
    x[1,5]    findWorstP[3,1]  -1.8490429758035390e-01
    x[1,5]    findWorstP[4,1]  -2.9410963753710409e-03
    x[1,6]    allocateEach[6]  1
    x[1,6]    findWorstP[1,2]  1.6919677564548469e-01
    x[1,6]    findWorstP[1,3]  1.6919677564548469e-01
    x[1,6]    findWorstP[1,4]  1.6919677564548469e-01
    x[1,6]    findWorstP[2,1]  -1.1207692307692306e-01
    x[1,6]    findWorstP[3,1]  -2.0751729310775898e-02
    x[1,6]    findWorstP[4,1]  -8.2269001388851057e-02
    x[2,1]    allocateEach[1]  1
    x[2,1]    findWorstP[1,2]  -1.3511191128933264e-01
    x[2,1]    findWorstP[2,1]  1.1374358974358974e-01
    x[2,1]    findWorstP[2,3]  1.1374358974358974e-01
    x[2,1]    findWorstP[2,4]  1.1374358974358974e-01
    x[2,1]    findWorstP[3,2]  -2.0779509403561408e-01
    x[2,1]    findWorstP[4,2]  -1.1279649247024863e-01
    x[2,2]    allocateEach[2]  1
    x[2,2]    findWorstP[1,2]  -0.161790580629322
    x[2,2]    findWorstP[2,1]  2.5466666666666665e-01
    x[2,2]    findWorstP[2,3]  2.5466666666666665e-01
    x[2,2]    findWorstP[2,4]  2.5466666666666665e-01
    x[2,2]    findWorstP[3,2]  -4.5670472539378275e-02
    x[2,2]    findWorstP[4,2]  -2.4539092072655974e-01
    x[2,3]    allocateEach[3]  1
    x[2,3]    findWorstP[1,2]  -1.5532550431687059e-01
    x[2,3]    findWorstP[2,1]  8.3641025641025629e-02
    x[2,3]    findWorstP[2,3]  8.3641025641025629e-02
    x[2,3]    findWorstP[2,4]  8.3641025641025629e-02
    x[2,3]    findWorstP[3,2]  -2.0729505236547488e-01
    x[2,3]    findWorstP[4,2]  -1.1532910323792925e-01
    x[2,4]    allocateEach[4]  1
    x[2,4]    findWorstP[1,2]  -9.8715168378411558e-02
    x[2,4]    findWorstP[2,1]  2.1105128205128204e-01
    x[2,4]    findWorstP[2,3]  2.1105128205128204e-01
    x[2,4]    findWorstP[2,4]  2.1105128205128204e-01
    x[2,4]    findWorstP[3,2]  -1.1134261188432369e-01
    x[2,4]    findWorstP[4,2]  -2.2341439503281502e-01
    x[2,5]    allocateEach[5]  1
    x[2,5]    findWorstP[1,2]  -1.1618724170383404e-01
    x[2,5]    findWorstP[2,1]  1.9692307692307690e-02
    x[2,5]    findWorstP[2,3]  1.9692307692307690e-02
    x[2,5]    findWorstP[2,4]  1.9692307692307690e-02
    x[2,5]    findWorstP[3,2]  -1.8490429758035390e-01
    x[2,5]    findWorstP[4,2]  -2.9410963753710409e-03
    x[2,6]    allocateEach[6]  1
    x[2,6]    findWorstP[1,2]  -1.6919677564548469e-01
    x[2,6]    findWorstP[2,1]  1.1207692307692306e-01
    x[2,6]    findWorstP[2,3]  1.1207692307692306e-01
    x[2,6]    findWorstP[2,4]  1.1207692307692306e-01
    x[2,6]    findWorstP[3,2]  -2.0751729310775898e-02
    x[2,6]    findWorstP[4,2]  -8.2269001388851057e-02
    x[3,1]    allocateEach[1]  1
    x[3,1]    findWorstP[1,3]  -1.3511191128933264e-01
    x[3,1]    findWorstP[2,3]  -1.1374358974358974e-01
    x[3,1]    findWorstP[3,1]  2.0779509403561408e-01
    x[3,1]    findWorstP[3,2]  2.0779509403561408e-01
    x[3,1]    findWorstP[3,4]  2.0779509403561408e-01
    x[3,1]    findWorstP[4,3]  -1.1279649247024863e-01
    x[3,2]    allocateEach[2]  1
    x[3,2]    findWorstP[1,3]  -0.161790580629322
    x[3,2]    findWorstP[2,3]  -2.5466666666666665e-01
    x[3,2]    findWorstP[3,1]  4.5670472539378275e-02
    x[3,2]    findWorstP[3,2]  4.5670472539378275e-02
    x[3,2]    findWorstP[3,4]  4.5670472539378275e-02
    x[3,2]    findWorstP[4,3]  -2.4539092072655974e-01
    x[3,3]    allocateEach[3]  1
    x[3,3]    findWorstP[1,3]  -1.5532550431687059e-01
    x[3,3]    findWorstP[2,3]  -8.3641025641025629e-02
    x[3,3]    findWorstP[3,1]  2.0729505236547488e-01
    x[3,3]    findWorstP[3,2]  2.0729505236547488e-01
    x[3,3]    findWorstP[3,4]  2.0729505236547488e-01
    x[3,3]    findWorstP[4,3]  -1.1532910323792925e-01
    x[3,4]    allocateEach[4]  1
    x[3,4]    findWorstP[1,3]  -9.8715168378411558e-02
    x[3,4]    findWorstP[2,3]  -2.1105128205128204e-01
    x[3,4]    findWorstP[3,1]  1.1134261188432369e-01
    x[3,4]    findWorstP[3,2]  1.1134261188432369e-01
    x[3,4]    findWorstP[3,4]  1.1134261188432369e-01
    x[3,4]    findWorstP[4,3]  -2.2341439503281502e-01
    x[3,5]    allocateEach[5]  1
    x[3,5]    findWorstP[1,3]  -1.1618724170383404e-01
    x[3,5]    findWorstP[2,3]  -1.9692307692307690e-02
    x[3,5]    findWorstP[3,1]  1.8490429758035390e-01
    x[3,5]    findWorstP[3,2]  1.8490429758035390e-01
    x[3,5]    findWorstP[3,4]  1.8490429758035390e-01
    x[3,5]    findWorstP[4,3]  -2.9410963753710409e-03
    x[3,6]    allocateEach[6]  1
    x[3,6]    findWorstP[1,3]  -1.6919677564548469e-01
    x[3,6]    findWorstP[2,3]  -1.1207692307692306e-01
    x[3,6]    findWorstP[3,1]  2.0751729310775898e-02
    x[3,6]    findWorstP[3,2]  2.0751729310775898e-02
    x[3,6]    findWorstP[3,4]  2.0751729310775898e-02
    x[3,6]    findWorstP[4,3]  -8.2269001388851057e-02
    x[4,1]    allocateEach[1]  1
    x[4,1]    findWorstP[1,4]  -1.3511191128933264e-01
    x[4,1]    findWorstP[2,4]  -1.1374358974358974e-01
    x[4,1]    findWorstP[3,4]  -2.0779509403561408e-01
    x[4,1]    findWorstP[4,1]  1.1279649247024863e-01
    x[4,1]    findWorstP[4,2]  1.1279649247024863e-01
    x[4,1]    findWorstP[4,3]  1.1279649247024863e-01
    x[4,2]    allocateEach[2]  1
    x[4,2]    findWorstP[1,4]  -0.161790580629322
    x[4,2]    findWorstP[2,4]  -2.5466666666666665e-01
    x[4,2]    findWorstP[3,4]  -4.5670472539378275e-02
    x[4,2]    findWorstP[4,1]  2.4539092072655974e-01
    x[4,2]    findWorstP[4,2]  2.4539092072655974e-01
    x[4,2]    findWorstP[4,3]  2.4539092072655974e-01
    x[4,3]    allocateEach[3]  1
    x[4,3]    findWorstP[1,4]  -1.5532550431687059e-01
    x[4,3]    findWorstP[2,4]  -8.3641025641025629e-02
    x[4,3]    findWorstP[3,4]  -2.0729505236547488e-01
    x[4,3]    findWorstP[4,1]  1.1532910323792925e-01
    x[4,3]    findWorstP[4,2]  1.1532910323792925e-01
    x[4,3]    findWorstP[4,3]  1.1532910323792925e-01
    x[4,4]    allocateEach[4]  1
    x[4,4]    findWorstP[1,4]  -9.8715168378411558e-02
    x[4,4]    findWorstP[2,4]  -2.1105128205128204e-01
    x[4,4]    findWorstP[3,4]  -1.1134261188432369e-01
    x[4,4]    findWorstP[4,1]  2.2341439503281502e-01
    x[4,4]    findWorstP[4,2]  2.2341439503281502e-01
    x[4,4]    findWorstP[4,3]  2.2341439503281502e-01
    x[4,5]    allocateEach[5]  1
    x[4,5]    findWorstP[1,4]  -1.1618724170383404e-01
    x[4,5]    findWorstP[2,4]  -1.9692307692307690e-02
    x[4,5]    findWorstP[3,4]  -1.8490429758035390e-01
    x[4,5]    findWorstP[4,1]  2.9410963753710409e-03
    x[4,5]    findWorstP[4,2]  2.9410963753710409e-03
    x[4,5]    findWorstP[4,3]  2.9410963753710409e-03
    x[4,6]    allocateEach[6]  1
    x[4,6]    findWorstP[1,4]  -1.6919677564548469e-01
    x[4,6]    findWorstP[2,4]  -1.1207692307692306e-01
    x[4,6]    findWorstP[3,4]  -2.0751729310775898e-02
    x[4,6]    findWorstP[4,1]  8.2269001388851057e-02
    x[4,6]    findWorstP[4,2]  8.2269001388851057e-02
    x[4,6]    findWorstP[4,3]  8.2269001388851057e-02
    MARKER    'MARKER'                 'INTEND'
RHS
    RHS1      allocateEach[1]  1
    RHS1      allocateEach[2]  1
    RHS1      allocateEach[3]  1
    RHS1      allocateEach[4]  1
    RHS1      allocateEach[5]  1
    RHS1      allocateEach[6]  1
    RHS1      allocateAllCash  1
BOUNDS
 UP BND1      z         1
 MI BND1      cashProportion[1]
 UP BND1      cashProportion[1]  1
 MI BND1      cashProportion[2]
 UP BND1      cashProportion[2]  1
 MI BND1      cashProportion[3]
 UP BND1      cashProportion[3]  1
 MI BND1      cashProportion[4]
 UP BND1      cashProportion[4]  1
 BV BND1      x[1,1]  
 BV BND1      x[1,2]  
 BV BND1      x[1,3]  
 BV BND1      x[1,4]  
 BV BND1      x[1,5]  
 BV BND1      x[1,6]  
 BV BND1      x[2,1]  
 BV BND1      x[2,2]  
 BV BND1      x[2,3]  
 BV BND1      x[2,4]  
 BV BND1      x[2,5]  
 BV BND1      x[2,6]  
 BV BND1      x[3,1]  
 BV BND1      x[3,2]  
 BV BND1      x[3,3]  
 BV BND1      x[3,4]  
 BV BND1      x[3,5]  
 BV BND1      x[3,6]  
 BV BND1      x[4,1]  
 BV BND1      x[4,2]  
 BV BND1      x[4,3]  
 BV BND1      x[4,4]  
 BV BND1      x[4,5]  
 BV BND1      x[4,6]  
ENDATA
